set VV := 0 1 2 3 4 5 6 7 8 9 10 11 12 13 14 15 16 17 ;
set VS := 0 1 2 3 4 5 6 7 8 9 10 11 12 13 14 15 16 17 18 19 20 21 22 23 24 25 26 27 28 29 30 31 32 33 34 35 36 37 38 39 40 ;
param cv := 
0 20
1 14
2 17
3 17
4 10
5 10
6 18
7 25
8 12
9 12
10 11
11 18
12 13
13 19
14 20
15 20
16 11
17 18
;
param cs := 
0 36
1 26
2 30
3 39
4 27
5 33
6 21
7 37
8 26
9 21
10 31
11 26
12 26
13 25
14 23
15 27
16 21
17 28
18 30
19 38
20 31
21 35
22 33
23 32
24 24
25 26
26 27
27 22
28 30
29 36
30 22
31 34
32 36
33 28
34 30
35 35
36 30
37 37
38 33
39 37
40 31
;
param bv:	 0 1 2 3 4 5 6 7 8 9 10 11 12 13 14 15 16 17 := 
		0 0 0 0 0 0 10 0 0 0 0 0 11 0 0 0 0 0 0 
		1 0 0 0 0 0 0 10 0 0 24 19 0 0 0 0 0 0 15 
		2 0 0 0 0 0 0 0 23 23 0 19 0 0 0 0 0 0 0 
		3 0 0 0 0 0 0 0 0 0 0 0 0 23 0 16 17 0 16 
		4 0 0 0 0 0 0 22 0 0 0 0 12 0 0 0 0 0 13 
		5 0 0 0 0 0 0 0 0 0 0 0 0 0 0 16 0 0 0 
		6 0 0 0 0 0 0 0 0 0 0 0 0 25 0 0 0 0 25 
		7 0 0 0 0 0 0 0 0 0 17 25 0 0 0 0 0 0 0 
		8 0 0 0 0 0 0 0 0 0 21 0 0 20 0 0 0 0 0 
		9 0 0 0 0 0 0 0 0 0 0 0 0 10 0 0 0 0 24 
		10 0 0 0 0 0 0 0 0 0 0 0 0 18 0 0 0 22 0 
		11 0 0 0 0 0 0 0 0 0 0 0 0 0 22 0 0 0 0 
		12 0 0 0 0 0 0 0 0 0 0 0 0 0 0 0 0 0 12 
		13 0 0 0 0 0 0 0 0 0 0 0 0 0 0 0 0 0 0 
		14 0 0 0 0 0 0 0 0 0 0 0 0 0 0 0 0 0 0 
		15 0 0 0 0 0 0 0 0 0 0 0 0 0 0 0 0 0 0 
		16 0 0 0 0 0 0 0 0 0 0 0 0 0 0 0 0 0 0 
		17 0 0 0 0 0 0 0 0 0 0 0 0 0 0 0 0 0 0 
;
param bs:	 0 1 2 3 4 5 6 7 8 9 10 11 12 13 14 15 16 17 18 19 20 21 22 23 24 25 26 27 28 29 30 31 32 33 34 35 36 37 38 39 40 := 
		0 0 0 0 0 0 0 0 0 23 0 0 0 23 0 0 0 25 0 0 0 0 0 0 0 0 0 0 25 0 0 0 0 0 0 40 0 0 0 0 0 0 
		1 0 0 0 0 22 0 0 0 0 0 0 0 0 0 34 0 0 0 0 26 0 0 0 0 31 0 0 0 0 0 0 20 0 0 0 0 0 35 34 0 0 
		2 0 0 0 0 0 0 0 0 0 0 0 0 0 33 0 0 0 0 0 0 0 0 0 0 0 0 32 0 0 0 38 0 23 0 0 0 0 0 0 27 0 
		3 0 0 0 0 27 0 0 0 28 0 39 0 0 0 0 0 0 0 0 0 0 0 0 0 0 33 0 0 0 0 0 0 0 0 0 37 28 39 34 38 0 
		4 0 22 0 27 0 0 0 0 0 32 0 0 0 0 25 0 0 0 34 0 0 0 0 0 0 32 0 0 25 0 29 0 0 0 0 0 0 28 0 0 35 
		5 0 0 0 0 0 0 0 0 0 0 0 35 0 0 0 0 27 0 0 0 0 0 0 0 0 0 23 0 0 0 0 0 0 0 0 0 38 0 0 0 0 
		6 0 0 0 0 0 0 0 0 24 0 0 0 0 0 0 0 0 0 0 0 0 0 0 0 0 0 0 0 36 0 0 0 0 0 0 0 0 0 0 0 0 
		7 0 0 0 0 0 0 0 0 0 0 0 0 22 0 0 0 32 0 34 0 0 0 0 0 0 0 0 0 0 0 0 0 0 0 0 0 0 0 0 0 0 
		8 23 0 0 28 0 0 24 0 0 0 0 21 0 0 39 0 0 0 0 0 0 0 0 31 0 0 25 0 0 0 0 21 0 0 0 0 0 0 0 30 38 
		9 0 0 0 0 32 0 0 0 0 0 0 0 0 0 0 0 0 0 0 0 29 0 0 0 0 0 0 0 0 0 27 0 0 31 0 0 0 0 0 0 0 
		10 0 0 0 39 0 0 0 0 0 0 0 0 0 0 0 0 0 0 0 0 0 0 0 32 0 0 38 0 0 0 0 0 0 0 0 27 0 0 0 40 23 
		11 0 0 0 0 0 35 0 0 21 0 0 0 0 40 0 0 0 0 29 0 0 0 0 0 0 0 0 0 0 0 0 0 0 32 0 40 0 22 0 0 0 
		12 23 0 0 0 0 0 0 22 0 0 0 0 0 0 0 0 0 0 0 40 0 0 0 0 0 0 0 0 0 0 0 0 0 0 0 0 0 0 0 0 0 
		13 0 0 33 0 0 0 0 0 0 0 0 40 0 0 0 0 0 0 0 31 0 37 0 0 0 0 0 0 0 0 0 0 0 33 0 0 0 0 30 24 0 
		14 0 34 0 0 25 0 0 0 39 0 0 0 0 0 0 0 0 0 0 0 0 0 39 37 0 23 0 0 0 0 0 37 0 25 0 0 25 0 0 0 0 
		15 0 0 0 0 0 0 0 0 0 0 0 0 0 0 0 0 0 0 0 32 40 0 28 0 0 0 0 0 0 30 0 0 0 0 0 0 0 0 0 26 0 
		16 25 0 0 0 0 27 0 32 0 0 0 0 0 0 0 0 0 0 0 0 0 0 0 0 22 0 0 0 0 0 0 0 0 0 0 23 0 0 0 30 0 
		17 0 0 0 0 0 0 0 0 0 0 0 0 0 0 0 0 0 0 0 0 0 0 0 0 0 0 0 0 0 0 0 0 0 0 0 26 0 0 0 0 30 
		18 0 0 0 0 34 0 0 34 0 0 0 29 0 0 0 0 0 0 0 0 0 0 24 36 0 27 33 0 25 0 0 0 0 0 0 0 38 0 0 39 0 
		19 0 26 0 0 0 0 0 0 0 0 0 0 40 31 0 32 0 0 0 0 0 0 0 21 0 0 0 36 0 22 0 0 0 0 0 0 0 0 0 0 30 
		20 0 0 0 0 0 0 0 0 0 29 0 0 0 0 0 40 0 0 0 0 0 0 0 0 0 0 0 0 0 0 0 0 0 0 0 0 0 0 0 33 0 
		21 0 0 0 0 0 0 0 0 0 0 0 0 0 37 0 0 0 0 0 0 0 0 0 31 0 0 0 0 0 0 0 0 0 0 0 0 0 0 0 0 0 
		22 0 0 0 0 0 0 0 0 0 0 0 0 0 0 39 28 0 0 24 0 0 0 0 0 0 0 0 0 0 0 0 35 0 0 0 0 0 0 0 0 0 
		23 0 0 0 0 0 0 0 0 31 0 32 0 0 0 37 0 0 0 36 21 0 31 0 0 0 31 0 0 37 0 33 37 0 0 0 0 0 0 0 0 21 
		24 0 31 0 0 0 0 0 0 0 0 0 0 0 0 0 0 22 0 0 0 0 0 0 0 0 0 0 0 0 0 0 0 0 25 0 0 0 23 0 0 0 
		25 0 0 0 33 32 0 0 0 0 0 0 0 0 0 23 0 0 0 27 0 0 0 0 31 0 0 0 0 0 0 0 0 0 0 0 0 0 22 0 0 0 
		26 0 0 32 0 0 23 0 0 25 0 38 0 0 0 0 0 0 0 33 0 0 0 0 0 0 0 0 0 40 0 0 0 0 34 33 0 0 0 0 0 0 
		27 25 0 0 0 0 0 0 0 0 0 0 0 0 0 0 0 0 0 0 36 0 0 0 0 0 0 0 0 0 30 0 0 0 0 0 0 29 0 31 0 0 
		28 0 0 0 0 25 0 36 0 0 0 0 0 0 0 0 0 0 0 25 0 0 0 0 37 0 0 40 0 0 0 0 21 0 0 0 0 0 0 0 0 0 
		29 0 0 0 0 0 0 0 0 0 0 0 0 0 0 0 30 0 0 0 22 0 0 0 0 0 0 0 30 0 0 0 0 0 38 0 0 0 0 0 28 0 
		30 0 0 38 0 29 0 0 0 0 27 0 0 0 0 0 0 0 0 0 0 0 0 0 33 0 0 0 0 0 0 0 0 0 0 0 0 0 0 0 0 0 
		31 0 20 0 0 0 0 0 0 21 0 0 0 0 0 37 0 0 0 0 0 0 0 35 37 0 0 0 0 21 0 0 0 0 0 0 0 40 0 0 0 20 
		32 0 0 23 0 0 0 0 0 0 0 0 0 0 0 0 0 0 0 0 0 0 0 0 0 0 0 0 0 0 0 0 0 0 0 0 24 0 0 0 0 27 
		33 0 0 0 0 0 0 0 0 0 31 0 32 0 33 25 0 0 0 0 0 0 0 0 0 25 0 34 0 0 38 0 0 0 0 0 0 0 0 37 0 0 
		34 40 0 0 0 0 0 0 0 0 0 0 0 0 0 0 0 0 0 0 0 0 0 0 0 0 0 33 0 0 0 0 0 0 0 0 0 0 0 0 0 0 
		35 0 0 0 37 0 0 0 0 0 0 27 40 0 0 0 0 23 26 0 0 0 0 0 0 0 0 0 0 0 0 0 0 24 0 0 0 0 0 0 0 0 
		36 0 0 0 28 0 38 0 0 0 0 0 0 0 0 25 0 0 0 38 0 0 0 0 0 0 0 0 29 0 0 0 40 0 0 0 0 0 0 0 0 0 
		37 0 35 0 39 28 0 0 0 0 0 0 22 0 0 0 0 0 0 0 0 0 0 0 0 23 22 0 0 0 0 0 0 0 0 0 0 0 0 0 0 0 
		38 0 34 0 34 0 0 0 0 0 0 0 0 0 30 0 0 0 0 0 0 0 0 0 0 0 0 0 31 0 0 0 0 0 37 0 0 0 0 0 0 0 
		39 0 0 27 38 0 0 0 0 30 0 40 0 0 24 0 26 30 0 39 0 33 0 0 0 0 0 0 0 0 28 0 0 0 0 0 0 0 0 0 0 0 
		40 0 0 0 0 35 0 0 0 38 0 23 0 0 0 0 0 0 30 0 30 0 0 0 21 0 0 0 0 0 0 0 20 27 0 0 0 0 0 0 0 0 
;
